p cnf 256 1
256 0
w 1 0.0788924
w 2 1 0.236148
w 2 -1 0.773464
w 3 2 0
w 3 -2 1
w 4 3 1
w 4 -3 0
w 5 4 0.244867
w 5 -4 0.269595
w 6 5 0.16636
w 6 -5 0.630742
w 7 6 0.654778
w 7 -6 0.778798
w 8 7 0
w 8 -7 1
w 9 8 0.751314
w 9 -8 0.621307
w 10 9 0.739673
w 10 -9 0.342753
w 11 10 1
w 11 -10 0
w 12 11 0
w 12 -11 1
w 13 12 0.582628
w 13 -12 0.746951
w 14 13 0.818776
w 14 -13 0.520415
w 15 14 0.94986
w 15 -14 0.573515
w 16 15 1
w 16 -15 0
w 17 1 0.70432
w 17 -1 0.145355
w 18 17 2 0.335062
w 18 17 -2 0.0153846
w 18 -17 2 0.639521
w 18 -17 -2 0.113859
w 19 18 3 1
w 19 18 -3 0
w 19 -18 3 0
w 19 -18 -3 0
w 20 19 4 0.767703
w 20 19 -4 0.494998
w 20 -19 4 0.0361726
w 20 -19 -4 0.470355
w 21 20 5 0.704232
w 21 20 -5 0.421552
w 21 -20 5 0.244668
w 21 -20 -5 0.451183
w 22 21 6 0.0634441
w 22 21 -6 0.971598
w 22 -21 6 0.53649
w 22 -21 -6 0.0133043
w 23 22 7 0.971215
w 23 22 -7 0.642113
w 23 -22 7 0.363496
w 23 -22 -7 0.675534
w 24 23 8 0.348238
w 24 23 -8 0.010596
w 24 -23 8 0.802853
w 24 -23 -8 0.987759
w 25 24 9 0
w 25 24 -9 0
w 25 -24 9 1
w 25 -24 -9 0
w 26 25 10 0.945503
w 26 25 -10 0.875302
w 26 -25 10 0.16594
w 26 -25 -10 0.981676
w 27 26 11 0
w 27 26 -11 0
w 27 -26 11 0
w 27 -26 -11 1
w 28 27 12 1
w 28 27 -12 1
w 28 -27 12 0
w 28 -27 -12 0
w 29 28 13 0
w 29 28 -13 1
w 29 -28 13 1
w 29 -28 -13 1
w 30 29 14 0.578977
w 30 29 -14 0.365536
w 30 -29 14 0.932889
w 30 -29 -14 0.38183
w 31 30 15 1
w 31 30 -15 0
w 31 -30 15 1
w 31 -30 -15 0
w 32 31 16 0.542934
w 32 31 -16 0.0503026
w 32 -31 16 0.444301
w 32 -31 -16 0.708874
w 33 17 1
w 33 -17 0
w 34 33 18 0.717886
w 34 33 -18 0.557166
w 34 -33 18 0.609501
w 34 -33 -18 0.854977
w 35 34 19 0
w 35 34 -19 1
w 35 -34 19 0
w 35 -34 -19 0
w 36 35 20 0.818523
w 36 35 -20 0.686498
w 36 -35 20 0.634764
w 36 -35 -20 0.740816
w 37 36 21 1
w 37 36 -21 0
w 37 -36 21 1
w 37 -36 -21 0
w 38 37 22 0.108705
w 38 37 -22 0.225587
w 38 -37 22 0.835848
w 38 -37 -22 0.677704
w 39 38 23 0.886151
w 39 38 -23 0.122004
w 39 -38 23 0.477395
w 39 -38 -23 0.918129
w 40 39 24 0.0142494
w 40 39 -24 0.636015
w 40 -39 24 0.469129
w 40 -39 -24 0.623751
w 41 40 25 0
w 41 40 -25 1
w 41 -40 25 0
w 41 -40 -25 0
w 42 41 26 0
w 42 41 -26 0
w 42 -41 26 1
w 42 -41 -26 1
w 43 42 27 0.216306
w 43 42 -27 0.707189
w 43 -42 27 0.570157
w 43 -42 -27 0.863612
w 44 43 28 0
w 44 43 -28 1
w 44 -43 28 1
w 44 -43 -28 0
w 45 44 29 0.0548925
w 45 44 -29 0.0232053
w 45 -44 29 0.772025
w 45 -44 -29 0.532288
w 46 45 30 0.683987
w 46 45 -30 0.546537
w 46 -45 30 0.57735
w 46 -45 -30 0.153116
w 47 46 31 0
w 47 46 -31 0
w 47 -46 31 0
w 47 -46 -31 1
w 48 47 32 0.595124
w 48 47 -32 0.411215
w 48 -47 32 0.754795
w 48 -47 -32 0.302013
w 49 33 1
w 49 -33 0
w 50 49 34 0
w 50 49 -34 1
w 50 -49 34 1
w 50 -49 -34 1
w 51 50 35 0.356357
w 51 50 -35 0.316085
w 51 -50 35 0.45705
w 51 -50 -35 0.41125
w 52 51 36 0
w 52 51 -36 0
w 52 -51 36 1
w 52 -51 -36 1
w 53 52 37 1
w 53 52 -37 0
w 53 -52 37 1
w 53 -52 -37 1
w 54 53 38 0.199995
w 54 53 -38 0.449317
w 54 -53 38 0.240222
w 54 -53 -38 0.00395956
w 55 54 39 1
w 55 54 -39 0
w 55 -54 39 0
w 55 -54 -39 0
w 56 55 40 0
w 56 55 -40 1
w 56 -55 40 1
w 56 -55 -40 1
w 57 56 41 1
w 57 56 -41 0
w 57 -56 41 0
w 57 -56 -41 1
w 58 57 42 0.0577244
w 58 57 -42 0.136787
w 58 -57 42 0.951958
w 58 -57 -42 0.970787
w 59 58 43 0.809933
w 59 58 -43 0.0369651
w 59 -58 43 0.287225
w 59 -58 -43 0.73625
w 60 59 44 1
w 60 59 -44 1
w 60 -59 44 0
w 60 -59 -44 1
w 61 60 45 1
w 61 60 -45 1
w 61 -60 45 0
w 61 -60 -45 1
w 62 61 46 0.932118
w 62 61 -46 0.709298
w 62 -61 46 0.54436
w 62 -61 -46 0.35776
w 63 62 47 0.915959
w 63 62 -47 0.13976
w 63 -62 47 0.0572997
w 63 -62 -47 0.744609
w 64 63 48 1
w 64 63 -48 1
w 64 -63 48 0
w 64 -63 -48 1
w 65 49 0.096659
w 65 -49 0.490524
w 66 65 50 0.383884
w 66 65 -50 0.226774
w 66 -65 50 0.831694
w 66 -65 -50 0.871105
w 67 66 51 1
w 67 66 -51 1
w 67 -66 51 0
w 67 -66 -51 0
w 68 67 52 0.21881
w 68 67 -52 0.879161
w 68 -67 52 0.59201
w 68 -67 -52 0.150928
w 69 68 53 0.136371
w 69 68 -53 0.508688
w 69 -68 53 0.313716
w 69 -68 -53 0.0523302
w 70 69 54 0.371016
w 70 69 -54 0.796939
w 70 -69 54 0.981457
w 70 -69 -54 0.0996485
w 71 70 55 0.451254
w 71 70 -55 0.780239
w 71 -70 55 0.372392
w 71 -70 -55 0.547913
w 72 71 56 1
w 72 71 -56 1
w 72 -71 56 0
w 72 -71 -56 0
w 73 72 57 0.909877
w 73 72 -57 0.107694
w 73 -72 57 0.165187
w 73 -72 -57 0.552226
w 74 73 58 0
w 74 73 -58 0
w 74 -73 58 0
w 74 -73 -58 1
w 75 74 59 0.582105
w 75 74 -59 0.505787
w 75 -74 59 0.430653
w 75 -74 -59 0.895822
w 76 75 60 0.0791015
w 76 75 -60 0.266837
w 76 -75 60 0.355056
w 76 -75 -60 0.060559
w 77 76 61 0
w 77 76 -61 0
w 77 -76 61 1
w 77 -76 -61 0
w 78 77 62 0
w 78 77 -62 1
w 78 -77 62 0
w 78 -77 -62 1
w 79 78 63 0.794426
w 79 78 -63 0.824902
w 79 -78 63 0.631063
w 79 -78 -63 0.959612
w 80 79 64 0
w 80 79 -64 0
w 80 -79 64 1
w 80 -79 -64 0
w 81 65 1
w 81 -65 0
w 82 81 66 1
w 82 81 -66 0
w 82 -81 66 0
w 82 -81 -66 1
w 83 82 67 0.483958
w 83 82 -67 0.525396
w 83 -82 67 0.640443
w 83 -82 -67 0.850444
w 84 83 68 1
w 84 83 -68 1
w 84 -83 68 0
w 84 -83 -68 0
w 85 84 69 1
w 85 84 -69 0
w 85 -84 69 0
w 85 -84 -69 1
w 86 85 70 0.154584
w 86 85 -70 0.470073
w 86 -85 70 0.957544
w 86 -85 -70 0.531712
w 87 86 71 1
w 87 86 -71 1
w 87 -86 71 0
w 87 -86 -71 0
w 88 87 72 0.276115
w 88 87 -72 0.413219
w 88 -87 72 0.250788
w 88 -87 -72 0.493236
w 89 88 73 0.830672
w 89 88 -73 0.977194
w 89 -88 73 0.108954
w 89 -88 -73 0.471115
w 90 89 74 0.588678
w 90 89 -74 0.623371
w 90 -89 74 0.824807
w 90 -89 -74 0.395123
w 91 90 75 0.239464
w 91 90 -75 0.710765
w 91 -90 75 0.0388591
w 91 -90 -75 0.569145
w 92 91 76 0.0367906
w 92 91 -76 0.723729
w 92 -91 76 0.0198492
w 92 -91 -76 0.994334
w 93 92 77 1
w 93 92 -77 0
w 93 -92 77 0
w 93 -92 -77 1
w 94 93 78 1
w 94 93 -78 1
w 94 -93 78 0
w 94 -93 -78 0
w 95 94 79 0.486671
w 95 94 -79 0.766783
w 95 -94 79 0.93683
w 95 -94 -79 0.595625
w 96 95 80 1
w 96 95 -80 0
w 96 -95 80 1
w 96 -95 -80 1
w 97 81 0.696622
w 97 -81 0.828738
w 98 97 82 1
w 98 97 -82 0
w 98 -97 82 0
w 98 -97 -82 0
w 99 98 83 1
w 99 98 -83 0
w 99 -98 83 0
w 99 -98 -83 0
w 100 99 84 0
w 100 99 -84 0
w 100 -99 84 1
w 100 -99 -84 0
w 101 100 85 0.848509
w 101 100 -85 0.933804
w 101 -100 85 0.711608
w 101 -100 -85 0.335179
w 102 101 86 0.648438
w 102 101 -86 0.930804
w 102 -101 86 0.938484
w 102 -101 -86 0.412905
w 103 102 87 0
w 103 102 -87 1
w 103 -102 87 0
w 103 -102 -87 0
w 104 103 88 0.984723
w 104 103 -88 0.231855
w 104 -103 88 0.2288
w 104 -103 -88 0.824689
w 105 104 89 0
w 105 104 -89 1
w 105 -104 89 1
w 105 -104 -89 0
w 106 105 90 0.226236
w 106 105 -90 0.0398366
w 106 -105 90 0.0653617
w 106 -105 -90 0.171632
w 107 106 91 1
w 107 106 -91 0
w 107 -106 91 1
w 107 -106 -91 1
w 108 107 92 0
w 108 107 -92 0
w 108 -107 92 0
w 108 -107 -92 1
w 109 108 93 0.401231
w 109 108 -93 0.410156
w 109 -108 93 0.592464
w 109 -108 -93 0.0957638
w 110 109 94 0.423382
w 110 109 -94 0.0804866
w 110 -109 94 0.138386
w 110 -109 -94 0.652182
w 111 110 95 0.142513
w 111 110 -95 0.00259508
w 111 -110 95 0.58968
w 111 -110 -95 0.913246
w 112 111 96 0.36947
w 112 111 -96 0.139482
w 112 -111 96 0.769898
w 112 -111 -96 0.434832
w 113 97 0
w 113 -97 1
w 114 113 98 0
w 114 113 -98 1
w 114 -113 98 0
w 114 -113 -98 1
w 115 114 99 0
w 115 114 -99 0
w 115 -114 99 1
w 115 -114 -99 0
w 116 115 100 1
w 116 115 -100 0
w 116 -115 100 0
w 116 -115 -100 0
w 117 116 101 0.516158
w 117 116 -101 0.2168
w 117 -116 101 0.455357
w 117 -116 -101 0.658671
w 118 117 102 0
w 118 117 -102 0
w 118 -117 102 0
w 118 -117 -102 1
w 119 118 103 0.719354
w 119 118 -103 0.849338
w 119 -118 103 0.0225133
w 119 -118 -103 0.526782
w 120 119 104 0
w 120 119 -104 0
w 120 -119 104 0
w 120 -119 -104 1
w 121 120 105 0.841097
w 121 120 -105 0.0130429
w 121 -120 105 0.817309
w 121 -120 -105 0.389869
w 122 121 106 0
w 122 121 -106 1
w 122 -121 106 0
w 122 -121 -106 0
w 123 122 107 0
w 123 122 -107 1
w 123 -122 107 1
w 123 -122 -107 1
w 124 123 108 0.531918
w 124 123 -108 0.907244
w 124 -123 108 0.413067
w 124 -123 -108 0.481374
w 125 124 109 0
w 125 124 -109 1
w 125 -124 109 1
w 125 -124 -109 1
w 126 125 110 1
w 126 125 -110 0
w 126 -125 110 1
w 126 -125 -110 0
w 127 126 111 0.996301
w 127 126 -111 0.554134
w 127 -126 111 0.606586
w 127 -126 -111 0.38617
w 128 127 112 0.895136
w 128 127 -112 0.917275
w 128 -127 112 0.797777
w 128 -127 -112 0.561458
w 129 113 0
w 129 -113 1
w 130 129 114 0.32552
w 130 129 -114 0.0668332
w 130 -129 114 0.585087
w 130 -129 -114 0.857438
w 131 130 115 0.998154
w 131 130 -115 0.338813
w 131 -130 115 0.295827
w 131 -130 -115 0.12262
w 132 131 116 0.466916
w 132 131 -116 0.2696
w 132 -131 116 0.267052
w 132 -131 -116 0.739509
w 133 132 117 0.300105
w 133 132 -117 0.894712
w 133 -132 117 0.311439
w 133 -132 -117 0.0893827
w 134 133 118 0.865573
w 134 133 -118 0.695969
w 134 -133 118 0.277182
w 134 -133 -118 0.806681
w 135 134 119 0.194457
w 135 134 -119 0.604457
w 135 -134 119 0.152563
w 135 -134 -119 0.207455
w 136 135 120 0.896499
w 136 135 -120 0.532975
w 136 -135 120 0.875917
w 136 -135 -120 0.481586
w 137 136 121 1
w 137 136 -121 0
w 137 -136 121 0
w 137 -136 -121 1
w 138 137 122 0.268768
w 138 137 -122 0.612737
w 138 -137 122 0.87196
w 138 -137 -122 0.53582
w 139 138 123 1
w 139 138 -123 0
w 139 -138 123 0
w 139 -138 -123 0
w 140 139 124 0.137971
w 140 139 -124 0.81932
w 140 -139 124 0.621276
w 140 -139 -124 0.415153
w 141 140 125 0.212381
w 141 140 -125 0.609611
w 141 -140 125 0.230458
w 141 -140 -125 0.364944
w 142 141 126 0.039542
w 142 141 -126 0.261443
w 142 -141 126 0.35004
w 142 -141 -126 0.915459
w 143 142 127 0.740453
w 143 142 -127 0.765453
w 143 -142 127 0.22277
w 143 -142 -127 0.46968
w 144 143 128 0.82513
w 144 143 -128 0.738447
w 144 -143 128 0.524012
w 144 -143 -128 0.69709
w 145 129 1
w 145 -129 0
w 146 145 130 1
w 146 145 -130 1
w 146 -145 130 0
w 146 -145 -130 1
w 147 146 131 1
w 147 146 -131 0
w 147 -146 131 0
w 147 -146 -131 1
w 148 147 132 0.285951
w 148 147 -132 0.968923
w 148 -147 132 0.234101
w 148 -147 -132 0.103017
w 149 148 133 0
w 149 148 -133 1
w 149 -148 133 0
w 149 -148 -133 1
w 150 149 134 0
w 150 149 -134 1
w 150 -149 134 0
w 150 -149 -134 1
w 151 150 135 1
w 151 150 -135 1
w 151 -150 135 0
w 151 -150 -135 0
w 152 151 136 0
w 152 151 -136 1
w 152 -151 136 0
w 152 -151 -136 1
w 153 152 137 0.385325
w 153 152 -137 0.72857
w 153 -152 137 0.478372
w 153 -152 -137 0.061666
w 154 153 138 1
w 154 153 -138 1
w 154 -153 138 0
w 154 -153 -138 0
w 155 154 139 0
w 155 154 -139 0
w 155 -154 139 1
w 155 -154 -139 0
w 156 155 140 0
w 156 155 -140 0
w 156 -155 140 1
w 156 -155 -140 1
w 157 156 141 0.0635655
w 157 156 -141 0.162027
w 157 -156 141 0.78304
w 157 -156 -141 0.0471288
w 158 157 142 0.783962
w 158 157 -142 0.37009
w 158 -157 142 0.624028
w 158 -157 -142 0.9081
w 159 158 143 0.445624
w 159 158 -143 0.293425
w 159 -158 143 0.714766
w 159 -158 -143 0.923995
w 160 159 144 1
w 160 159 -144 0
w 160 -159 144 1
w 160 -159 -144 1
w 161 145 0.153342
w 161 -145 0.0621834
w 162 161 146 0.0570327
w 162 161 -146 0.430531
w 162 -161 146 0.246078
w 162 -161 -146 0.154233
w 163 162 147 0
w 163 162 -147 1
w 163 -162 147 0
w 163 -162 -147 0
w 164 163 148 1
w 164 163 -148 0
w 164 -163 148 1
w 164 -163 -148 1
w 165 164 149 0.53861
w 165 164 -149 0.621736
w 165 -164 149 0.490151
w 165 -164 -149 0.984234
w 166 165 150 0.204917
w 166 165 -150 0.908229
w 166 -165 150 0.270252
w 166 -165 -150 0.386719
w 167 166 151 1
w 167 166 -151 1
w 167 -166 151 1
w 167 -166 -151 0
w 168 167 152 0
w 168 167 -152 0
w 168 -167 152 1
w 168 -167 -152 1
w 169 168 153 1
w 169 168 -153 1
w 169 -168 153 0
w 169 -168 -153 1
w 170 169 154 0
w 170 169 -154 0
w 170 -169 154 0
w 170 -169 -154 1
w 171 170 155 0.957043
w 171 170 -155 0.782035
w 171 -170 155 0.397128
w 171 -170 -155 0.447194
w 172 171 156 0.312288
w 172 171 -156 0.652111
w 172 -171 156 0.674498
w 172 -171 -156 0.58254
w 173 172 157 0
w 173 172 -157 1
w 173 -172 157 0
w 173 -172 -157 1
w 174 173 158 0.109972
w 174 173 -158 0.850397
w 174 -173 158 0.865138
w 174 -173 -158 0.607166
w 175 174 159 1
w 175 174 -159 1
w 175 -174 159 0
w 175 -174 -159 0
w 176 175 160 0.611422
w 176 175 -160 0.783741
w 176 -175 160 0.786455
w 176 -175 -160 0.0645096
w 177 161 1
w 177 -161 0
w 178 177 162 1
w 178 177 -162 0
w 178 -177 162 0
w 178 -177 -162 1
w 179 178 163 0
w 179 178 -163 1
w 179 -178 163 1
w 179 -178 -163 1
w 180 179 164 0
w 180 179 -164 1
w 180 -179 164 1
w 180 -179 -164 1
w 181 180 165 0.956244
w 181 180 -165 0.920135
w 181 -180 165 0.901486
w 181 -180 -165 0.158951
w 182 181 166 0.193685
w 182 181 -166 0.613849
w 182 -181 166 0.237449
w 182 -181 -166 0.805107
w 183 182 167 0
w 183 182 -167 1
w 183 -182 167 0
w 183 -182 -167 1
w 184 183 168 0.233956
w 184 183 -168 0.544726
w 184 -183 168 0.359915
w 184 -183 -168 0.809426
w 185 184 169 0.480773
w 185 184 -169 0.0593926
w 185 -184 169 0.669793
w 185 -184 -169 0.64046
w 186 185 170 1
w 186 185 -170 0
w 186 -185 170 0
w 186 -185 -170 0
w 187 186 171 1
w 187 186 -171 1
w 187 -186 171 0
w 187 -186 -171 0
w 188 187 172 1
w 188 187 -172 1
w 188 -187 172 1
w 188 -187 -172 0
w 189 188 173 0.296836
w 189 188 -173 0.850664
w 189 -188 173 0.766656
w 189 -188 -173 0.721592
w 190 189 174 1
w 190 189 -174 1
w 190 -189 174 0
w 190 -189 -174 0
w 191 190 175 0.797131
w 191 190 -175 0.498513
w 191 -190 175 0.824366
w 191 -190 -175 0.466924
w 192 191 176 1
w 192 191 -176 1
w 192 -191 176 1
w 192 -191 -176 0
w 193 177 0.138857
w 193 -177 0.139725
w 194 193 178 0.215419
w 194 193 -178 0.037971
w 194 -193 178 0.128068
w 194 -193 -178 0.80473
w 195 194 179 1
w 195 194 -179 1
w 195 -194 179 0
w 195 -194 -179 1
w 196 195 180 1
w 196 195 -180 0
w 196 -195 180 0
w 196 -195 -180 0
w 197 196 181 0
w 197 196 -181 1
w 197 -196 181 1
w 197 -196 -181 0
w 198 197 182 0.590631
w 198 197 -182 0.163767
w 198 -197 182 0.106647
w 198 -197 -182 0.578608
w 199 198 183 0.0890781
w 199 198 -183 0.721572
w 199 -198 183 0.42601
w 199 -198 -183 0.227935
w 200 199 184 0.26868
w 200 199 -184 0.443354
w 200 -199 184 0.899267
w 200 -199 -184 0.396749
w 201 200 185 1
w 201 200 -185 1
w 201 -200 185 1
w 201 -200 -185 0
w 202 201 186 0
w 202 201 -186 1
w 202 -201 186 0
w 202 -201 -186 1
w 203 202 187 0.180013
w 203 202 -187 0.770291
w 203 -202 187 0.561514
w 203 -202 -187 0.876855
w 204 203 188 0.152145
w 204 203 -188 0.0406219
w 204 -203 188 0.844613
w 204 -203 -188 0.730753
w 205 204 189 0.933691
w 205 204 -189 0.452324
w 205 -204 189 0.176419
w 205 -204 -189 0.161626
w 206 205 190 1
w 206 205 -190 0
w 206 -205 190 1
w 206 -205 -190 0
w 207 206 191 0.242058
w 207 206 -191 0.265912
w 207 -206 191 0.732641
w 207 -206 -191 0.298169
w 208 207 192 1
w 208 207 -192 1
w 208 -207 192 0
w 208 -207 -192 1
w 209 193 1
w 209 -193 0
w 210 209 194 0.219297
w 210 209 -194 0.164849
w 210 -209 194 0.43154
w 210 -209 -194 0.957263
w 211 210 195 1
w 211 210 -195 0
w 211 -210 195 0
w 211 -210 -195 1
w 212 211 196 0.500072
w 212 211 -196 0.39899
w 212 -211 196 0.897193
w 212 -211 -196 0.813692
w 213 212 197 0.502174
w 213 212 -197 0.0265801
w 213 -212 197 0.685937
w 213 -212 -197 0.35524
w 214 213 198 1
w 214 213 -198 0
w 214 -213 198 0
w 214 -213 -198 1
w 215 214 199 0
w 215 214 -199 1
w 215 -214 199 1
w 215 -214 -199 0
w 216 215 200 1
w 216 215 -200 1
w 216 -215 200 0
w 216 -215 -200 0
w 217 216 201 1
w 217 216 -201 1
w 217 -216 201 1
w 217 -216 -201 0
w 218 217 202 1
w 218 217 -202 0
w 218 -217 202 0
w 218 -217 -202 1
w 219 218 203 0
w 219 218 -203 0
w 219 -218 203 0
w 219 -218 -203 1
w 220 219 204 0.515969
w 220 219 -204 0.118746
w 220 -219 204 0.72018
w 220 -219 -204 0.082775
w 221 220 205 0
w 221 220 -205 0
w 221 -220 205 1
w 221 -220 -205 1
w 222 221 206 0.23618
w 222 221 -206 0.570964
w 222 -221 206 0.344133
w 222 -221 -206 0.778425
w 223 222 207 1
w 223 222 -207 1
w 223 -222 207 1
w 223 -222 -207 0
w 224 223 208 0.367306
w 224 223 -208 0.7042
w 224 -223 208 0.951711
w 224 -223 -208 0.00417695
w 225 209 1
w 225 -209 0
w 226 225 210 1
w 226 225 -210 1
w 226 -225 210 0
w 226 -225 -210 0
w 227 226 211 0.77078
w 227 226 -211 0.108625
w 227 -226 211 0.0185364
w 227 -226 -211 0.855502
w 228 227 212 0
w 228 227 -212 0
w 228 -227 212 1
w 228 -227 -212 1
w 229 228 213 0.0413764
w 229 228 -213 0.121274
w 229 -228 213 0.72889
w 229 -228 -213 0.15549
w 230 229 214 0.366555
w 230 229 -214 0.284914
w 230 -229 214 0.632165
w 230 -229 -214 0.911207
w 231 230 215 0.336366
w 231 230 -215 0.862918
w 231 -230 215 0.656397
w 231 -230 -215 0.815452
w 232 231 216 0
w 232 231 -216 1
w 232 -231 216 1
w 232 -231 -216 0
w 233 232 217 0.390934
w 233 232 -217 0.564348
w 233 -232 217 0.0686675
w 233 -232 -217 0.40947
w 234 233 218 1
w 234 233 -218 1
w 234 -233 218 1
w 234 -233 -218 0
w 235 234 219 1
w 235 234 -219 0
w 235 -234 219 0
w 235 -234 -219 1
w 236 235 220 0.929537
w 236 235 -220 0.180047
w 236 -235 220 0.0319161
w 236 -235 -220 0.561702
w 237 236 221 1
w 237 236 -221 0
w 237 -236 221 1
w 237 -236 -221 1
w 238 237 222 0.989552
w 238 237 -222 0.482066
w 238 -237 222 0.285117
w 238 -237 -222 0.444724
w 239 238 223 0
w 239 238 -223 1
w 239 -238 223 1
w 239 -238 -223 0
w 240 239 224 0
w 240 239 -224 1
w 240 -239 224 0
w 240 -239 -224 0
w 241 225 0.473197
w 241 -225 0.47857
w 242 241 226 0.597077
w 242 241 -226 0.292062
w 242 -241 226 0.282202
w 242 -241 -226 0.526614
w 243 242 227 1
w 243 242 -227 0
w 243 -242 227 0
w 243 -242 -227 0
w 244 243 228 0.517535
w 244 243 -228 0.338786
w 244 -243 228 0.699903
w 244 -243 -228 0.507087
w 245 244 229 0.98502
w 245 244 -229 0.95181
w 245 -244 229 0.0964867
w 245 -244 -229 0.230179
w 246 245 230 0.936469
w 246 245 -230 0.544006
w 246 -245 230 0.0325951
w 246 -245 -230 0.196302
w 247 246 231 0.503187
w 247 246 -231 0.590271
w 247 -246 231 0.881244
w 247 -246 -231 0.976384
w 248 247 232 1
w 248 247 -232 0
w 248 -247 232 1
w 248 -247 -232 1
w 249 248 233 0.0127631
w 249 248 -233 0.18839
w 249 -248 233 0.396374
w 249 -248 -233 0.0110167
w 250 249 234 0
w 250 249 -234 1
w 250 -249 234 0
w 250 -249 -234 0
w 251 250 235 0
w 251 250 -235 0
w 251 -250 235 1
w 251 -250 -235 0
w 252 251 236 1
w 252 251 -236 0
w 252 -251 236 1
w 252 -251 -236 1
w 253 252 237 0.696056
w 253 252 -237 0.990184
w 253 -252 237 0.452683
w 253 -252 -237 0.672439
w 254 253 238 0
w 254 253 -238 0
w 254 -253 238 1
w 254 -253 -238 0
w 255 254 239 0
w 255 254 -239 1
w 255 -254 239 1
w 255 -254 -239 1
w 256 255 240 0.709136
w 256 255 -240 0.56322
w 256 -255 240 0.941355
w 256 -255 -240 0.583812